NAME : XML50_2173_20
COMMENT : Generated as the XML100 dataset from the CVRPLIB
TYPE : CVRP
DIMENSION : 51
EDGE_WEIGHT_TYPE : EUC_2D
CAPACITY : 146
NODE_COORD_SECTION
1    500  500 
2    284  765 
3    932  406 
4    812  774 
5    489  218 
6    457  668 
7    485  47  
8    565  250 
9    534  671 
10   328  343 
11   237  808 
12   288  289 
13   820  216 
14   478  373 
15   531  196 
16   359  761 
17   31   541 
18   61   63  
19   456  723 
20   615  326 
21   816  337 
22   572  236 
23   640  889 
24   710  576 
25   0    65  
26   85   673 
27   421  775 
28   64   650 
29   707  387 
30   908  444 
31   646  954 
32   826  430 
33   328  894 
34   291  9   
35   169  364 
36   162  93  
37   739  828 
38   160  346 
39   871  590 
40   19   877 
41   655  105 
42   59   532 
43   715  159 
44   335  844 
45   59   315 
46   113  951 
47   56   505 
48   989  841 
49   882  122 
50   993  719 
51   693  650 
DEMAND_SECTION
1    0   
2    1   
3    8   
4    2   
5    96  
6    6   
7    8   
8    5   
9    2   
10   7   
11   10  
12   9   
13   1   
14   68  
15   68  
16   9   
17   4   
18   5   
19   4   
20   3   
21   8   
22   9   
23   4   
24   66  
25   8   
26   66  
27   3   
28   7   
29   1   
30   92  
31   4   
32   4   
33   3   
34   2   
35   5   
36   3   
37   5   
38   8   
39   1   
40   7   
41   3   
42   8   
43   6   
44   10  
45   10  
46   10  
47   4   
48   8   
49   7   
50   1   
51   5   
DEPOT_SECTION
1
-1
EOF
